c Output_time 26.03.2020 18:15:12_+0100 1585242912289927104
c ** Program information **
c program_name                          "QBRG_debug"
c version                               "0.3.20"
c date                                  "25.3.2020"
c gid_id                                "673970833836058123f633335630c185360d632e"
c author                                "Oliver Kullmann"
c url                                   "https://github.com/OKullmann/oklibrary/blob/master/Satisfiability/Transformers/Generators/Random/QBRG.cpp"
c ** Machine information **
c machine_name                          "chyna-Lenovo-G50-70"
c bogomips                              3791.08
c ** Compilation information **
c compiler_version                      "g++ 7.5.0"
c compilation_date                      "Mar_26_2020 11:16:30"
c compilation_options                   "--std=c++17 -pedantic -fmax-errors=5 -Wall -Wextra -g -D_GLIBCXX_DEBUG"
c NDEBUG                                0
c OPTIMIZE                              0
c ** Parameters **
c command-line                          "./QBRG_debug" "a40 e40 a40 40" "234*1,1|2-2,1|3-3,1|4-4,1" "" "1,t" ""
c output                                "QuBlRaGe_160_234_1585242912248821994.qdimacs"
c options                               "filtered,renamed"
c num_quantifier_blocks                 4
c  quantifier_blocks                    1:a1-40 2:e41-80 3:a81-120 4:e121-160
c num_clause-blocks                     1
c  clause-blocks                        234 * {1-40,1,1/2} | {41-80,1,1/2} | {81-120,1,1/2} | {121-160,1,1/2}
c num_e-seeds                           37+2=39
c  e-seeds                              1 0 1 0 5 160 2 40 0 40 1 40 0 40 1 234 4 1 1 1 1 2 2 2 1 1 2 3 3 1 1 2 4 4 1 1 2 1 1585242912248821388
p cnf 160 234
a 1 2 3 4 5 6 7 8 9 10 11 12 13 14 15 16 17 18 19 20 21 22 23 24 25 26 27 28 29 30 31 32 33 34 35 36 37 38 39 40 0
e 41 42 43 44 45 46 47 48 49 50 51 52 53 54 55 56 57 58 59 60 61 62 63 64 65 66 67 68 69 70 71 72 73 74 75 76 77 78 79 80 0
a 81 82 83 84 85 86 87 88 89 90 91 92 93 94 95 96 97 98 99 100 101 102 103 104 105 106 107 108 109 110 111 112 113 114 115 116 117 118 119 120 0
e 121 122 123 124 125 126 127 128 129 130 131 132 133 134 135 136 137 138 139 140 141 142 143 144 145 146 147 148 149 150 151 152 153 154 155 156 157 158 159 160 0
26 42 -93 -121 0
-17 56 -115 -121 0
18 -46 -109 121 0
-15 74 98 -122 0
-27 -70 104 -122 0
-10 -43 -110 -122 0
25 59 -113 -122 0
26 -55 -83 122 0
23 49 114 122 0
21 75 -81 -123 0
-15 55 -83 -123 0
4 -71 85 -123 0
30 59 109 -123 0
-14 43 -112 -123 0
-18 78 112 -123 0
2 68 -82 123 0
13 66 -87 124 0
-10 -70 -91 124 0
-30 55 -93 124 0
8 45 -115 124 0
40 -56 116 124 0
-35 -43 -84 -125 0
-15 76 95 -125 0
7 -72 96 -125 0
-32 69 -104 125 0
-39 50 -113 125 0
-23 59 -116 125 0
6 55 111 -126 0
9 -59 -89 126 0
-37 72 98 126 0
-28 -54 86 -127 0
14 41 93 -127 0
-25 77 -120 -127 0
-18 -41 -81 127 0
-31 -50 -88 127 0
20 -72 85 -128 0
29 -61 -87 -128 0
17 -54 -98 -128 0
-16 -50 114 -128 0
35 -56 82 128 0
-15 -67 90 128 0
5 79 -119 128 0
10 77 -81 -129 0
40 43 -91 -129 0
2 -47 -104 -129 0
-28 -53 -100 129 0
-17 75 -102 129 0
10 58 -109 129 0
9 52 110 129 0
27 -41 -91 -130 0
11 -67 -91 -130 0
-31 66 91 -130 0
-13 73 -103 -130 0
-37 -58 -116 -130 0
-40 73 119 -130 0
1 69 98 130 0
12 -46 102 130 0
36 66 105 130 0
5 -62 106 130 0
35 -56 110 130 0
24 69 -84 -131 0
-36 -68 -96 -131 0
-32 -73 114 -131 0
39 -68 119 -131 0
13 78 98 131 0
29 -53 -104 131 0
33 80 -119 -132 0
-1 41 85 132 0
-27 62 103 132 0
-39 54 106 132 0
5 -71 -110 132 0
-7 -74 120 132 0
11 -79 88 -133 0
37 49 98 -133 0
-12 68 -108 -133 0
24 73 108 -133 0
-32 42 113 -133 0
-37 47 -83 133 0
-14 71 96 133 0
-3 -68 -112 133 0
-37 -54 104 134 0
17 44 114 134 0
17 -73 -104 -135 0
5 -68 -110 -135 0
2 -59 -112 -135 0
-2 -56 117 -135 0
9 79 95 135 0
-33 44 109 135 0
-1 -54 -111 135 0
-36 72 119 135 0
35 69 -83 -136 0
4 62 -110 -136 0
-16 -41 -102 136 0
12 57 -110 -137 0
35 70 -117 -137 0
31 -75 -86 137 0
26 77 -95 137 0
40 60 -105 137 0
20 51 -114 137 0
40 -55 -114 137 0
26 -59 96 -138 0
15 57 97 -138 0
-17 77 -88 138 0
-24 79 -91 138 0
-35 -52 112 138 0
-10 -70 112 138 0
-15 -53 -110 -139 0
-4 -44 -82 139 0
-7 42 -105 139 0
38 54 113 139 0
-24 -80 90 140 0
-23 -60 82 -141 0
22 47 89 -141 0
40 56 -96 -141 0
16 -75 -98 -141 0
1 57 103 -141 0
-23 68 112 -141 0
-29 -73 -95 141 0
-39 48 116 141 0
15 62 118 141 0
23 -57 -106 -142 0
10 75 107 -142 0
24 65 109 -142 0
-22 66 91 142 0
-26 47 99 142 0
-35 -63 -94 -143 0
-31 -53 -112 -143 0
-36 -66 -116 -143 0
23 60 -85 143 0
30 59 113 143 0
-39 -75 -91 -144 0
24 -61 -109 -144 0
38 64 100 144 0
1 -45 111 144 0
-31 -42 120 144 0
34 49 -111 -145 0
-23 63 -115 145 0
-7 -76 -108 -146 0
31 -52 -118 -146 0
26 -49 92 146 0
-22 -79 -95 146 0
28 -48 103 146 0
-10 74 105 146 0
16 -76 -112 146 0
-12 -78 -100 -147 0
-25 58 -101 -147 0
37 49 85 147 0
39 -53 90 147 0
20 -45 -93 147 0
25 65 -94 147 0
-5 74 -86 -148 0
-23 80 92 -148 0
-27 -69 -104 -148 0
21 48 -115 -148 0
9 -61 -81 148 0
-21 -50 -120 148 0
19 -49 -82 -149 0
34 43 -83 -149 0
40 59 103 -149 0
24 48 89 149 0
29 69 -98 149 0
-34 -58 111 149 0
4 -56 91 -150 0
36 75 -107 -150 0
32 -59 110 -150 0
28 67 110 -150 0
39 48 119 -150 0
-3 57 102 150 0
-20 -57 -115 150 0
-27 45 -92 -151 0
16 -79 95 -151 0
-40 79 -98 -151 0
-19 -54 -100 -151 0
14 80 103 -151 0
38 68 -86 151 0
3 -69 89 151 0
24 -73 -98 151 0
37 -46 100 151 0
33 -41 103 151 0
-5 -50 -84 -152 0
36 56 -85 -152 0
26 -58 -90 -152 0
-4 -54 109 -152 0
-17 78 111 -152 0
3 69 105 152 0
23 -47 -90 -153 0
-18 73 99 -153 0
-2 54 95 153 0
-28 -67 100 153 0
-6 -72 -110 153 0
-13 58 116 153 0
-19 73 -120 153 0
-6 58 -104 -154 0
-18 79 87 154 0
-37 52 92 154 0
-36 68 -96 154 0
-3 -69 105 154 0
9 -61 -95 -155 0
-20 -67 116 -155 0
-7 -41 -120 -155 0
-32 70 -99 155 0
-39 -46 103 155 0
19 49 106 155 0
4 -45 -97 -156 0
-17 73 -104 -156 0
4 63 113 -156 0
37 -68 117 -156 0
40 76 -101 156 0
-30 73 107 156 0
-19 -67 90 -157 0
33 -61 -111 -157 0
8 47 -115 -157 0
24 -52 -90 157 0
37 55 -90 157 0
-16 51 -101 157 0
2 53 85 -158 0
-7 51 -89 -158 0
39 -74 -99 -158 0
-9 -53 101 -158 0
-37 75 -117 -158 0
4 -71 -81 158 0
-1 69 82 158 0
39 -63 99 158 0
-1 -66 108 158 0
-20 -50 109 158 0
7 79 107 -159 0
-16 70 -120 -159 0
-29 -44 -86 -160 0
-3 80 96 -160 0
-7 -58 -99 -160 0
-40 -62 115 -160 0
7 -56 -87 160 0
-16 -72 87 160 0
-13 -59 90 160 0
